10
0, 612, 777, 898, 778, 586, 837, 626, 518, 980
612, 0, 414, 434, 225, 761, 661, 654, 691, 452
777, 414, 0, 153, 260, 569, 278, 410, 531, 786
898, 434, 153, 0, 221, 721, 393, 560, 684, 725
778, 225, 260, 221, 0, 761, 537, 619, 704, 526
586, 761, 569, 721, 761, 0, 416, 164, 77, 1213
837, 661, 278, 393, 537, 416, 0, 262, 416, 1062
626, 654, 410, 560, 619, 164, 262, 0, 154, 1100
518, 691, 531, 684, 704, 77, 416, 154, 0, 1143
980, 452, 786, 725, 526, 1213, 1062, 1100, 1143, 0
